138652
25,13,46,60,102,3,14,74,34,62,31,6,52,83,48,36,38,35,47,84,10,40,66,53,70,94,103,37,104,100,2,77,93,69,17,95,59,90,78,42,101,73,23,57,0,86,43,65,58,9,26,27,75,88,79,56,82,33,8,91,22,92,11,7,105,96,54,28,29,4,51,64,30,97,12,87,68,5,39,55,19,15,63,89,16,20,76,45,85,21,61,24,44,71,1,72,32,81,50,99,80,41,18,98,67,49
